
******************************************************************************
This program contains Ipopt, a library for large-scale nonlinear optimization.
 Ipopt is released as open source code under the Eclipse Public License (EPL).
         For more information visit http://projects.coin-or.org/Ipopt

This version of Ipopt was compiled from source code available at
    https://github.com/IDAES/Ipopt as part of the Institute for the Design of
    Advanced Energy Systems Process Systems Engineering Framework (IDAES PSE
    Framework) Copyright (c) 2018-2019. See https://github.com/IDAES/idaes-pse.

This version of Ipopt was compiled using HSL, a collection of Fortran codes
    for large-scale scientific computation.  All technical papers, sales and
    publicity material resulting from use of the HSL codes within IPOPT must
    contain the following acknowledgement:
        HSL, a collection of Fortran codes for large-scale scientific
        computation. See http://www.hsl.rl.ac.uk.
******************************************************************************

This is Ipopt version 3.13.2, running with linear solver ma27.

Number of nonzeros in equality constraint Jacobian...:      808
Number of nonzeros in inequality constraint Jacobian.:        0
Number of nonzeros in Lagrangian Hessian.............:      702

Total number of variables............................:      351
                     variables with only lower bounds:      108
                variables with lower and upper bounds:      189
                     variables with only upper bounds:        0
Total number of equality constraints.................:      350
Total number of inequality constraints...............:        0
        inequality constraints with only lower bounds:        0
   inequality constraints with lower and upper bounds:        0
        inequality constraints with only upper bounds:        0

iter    objective    inf_pr   inf_du lg(mu)  ||d||  lg(rg) alpha_du alpha_pr  ls
   0  0.0000000e+00 4.32e-01 5.68e-14  -1.0 0.00e+00    -  0.00e+00 0.00e+00   0
   1  4.8280941e-01 2.73e-01 2.60e+04  -1.0 1.27e+05    -  7.55e-01 3.71e-01h  1
   2  5.0125535e-01 2.70e-01 2.59e+04  -1.0 9.03e+04    -  8.67e-01 1.18e-02h  1
   3  9.3331444e+00 5.65e-02 1.55e+04  -1.0 2.05e+05    -  7.82e-01 8.78e-01h  1
   4  1.4304180e+01 2.09e-03 1.19e+03  -1.0 4.90e+04    -  9.44e-01 9.90e-01h  1
   5  1.4491602e+01 2.32e-05 6.47e+00  -1.0 1.67e+03    -  9.90e-01 9.90e-01h  1
   6  1.4494740e+01 2.25e-05 1.27e+06  -1.0 8.39e+02    -  9.90e-01 3.09e-02f  6
   7  1.4502474e+01 2.18e-05 2.54e+06  -1.0 2.07e+03    -  9.91e-01 3.09e-02f  6
   8  1.4717120e+01 2.90e-05 3.95e+04  -1.0 1.79e+03    -  1.00e+00 9.90e-01H  1
   9  1.4724251e+01 7.92e-07 1.41e+06  -1.0 5.90e+01    -  1.00e+00 9.90e-01h  1
iter    objective    inf_pr   inf_du lg(mu)  ||d||  lg(rg) alpha_du alpha_pr  ls
  10  1.4724145e+01 7.99e-09 1.41e+08  -1.0 8.78e-01    -  1.00e+00 9.90e-01h  1
  11  1.4724144e+01 8.00e-11 1.41e+10  -1.0 8.90e-03    -  1.00e+00 9.90e-01h  1
In iteration 11, 27 Slacks too small, adjusting variable bounds
  12  1.4724144e+01 2.96e-10 1.41e+12  -1.0 8.90e-05    -  1.00e+00 9.90e-01h  1
  13  1.4724144e+01 7.37e-11 1.51e-02  -1.0 8.72e-07    -  1.00e+00 1.00e+00h  1
  14  1.4724116e+01 7.02e-11 1.43e+12  -9.0 3.75e+03    -  9.97e-01 6.18e-05f 14
  15  1.4724088e+01 2.32e-10 1.44e+12  -9.0 2.16e+03    -  9.99e-01 1.07e-04f 14
  16  1.4724084e+01 1.49e-10 1.44e+12  -9.0 1.94e+03    -  1.00e+00 1.49e-05f 17
  17  1.4724056e+01 7.55e-11 1.44e+12  -9.0 1.91e+03    -  1.00e+00 1.21e-04f 14
  18  1.4724027e+01 1.39e-10 1.44e+12  -9.0 1.90e+03    -  1.00e+00 1.22e-04f 14
  19  1.4493441e+01 5.04e-04 6.03e+08  -9.0 1.90e+03    -  1.00e+00 1.00e+00f  1
iter    objective    inf_pr   inf_du lg(mu)  ||d||  lg(rg) alpha_du alpha_pr  ls
  20  1.4491764e+01 3.83e-08 9.27e-04  -9.0 1.39e+01    -  1.00e+00 1.00e+00h  1
  21  1.4491764e+01 4.96e-11 9.41e-11  -9.0 8.71e-05    -  1.00e+00 1.00e+00h  1

Number of Iterations....: 21

                                   (scaled)                 (unscaled)
Objective...............:   1.4491763634038218e+01    1.4491763634038218e+01
Dual infeasibility......:   9.4114269365711361e-11    9.4114269365711361e-11
Constraint violation....:   4.9622084219436147e-11    4.9622084219436147e-11
Complementarity.........:   9.0910660956165525e-10    9.0910660956165525e-10
Overall NLP error.......:   1.2648314252270551e-10    9.0910660956165525e-10


Number of objective function evaluations             = 123
Number of objective gradient evaluations             = 22
Number of equality constraint evaluations            = 123
Number of inequality constraint evaluations          = 0
Number of equality constraint Jacobian evaluations   = 22
Number of inequality constraint Jacobian evaluations = 0
Number of Lagrangian Hessian evaluations             = 21
Total CPU secs in IPOPT (w/o function evaluations)   =      0.050
Total CPU secs in NLP function evaluations           =      0.926

EXIT: Optimal Solution Found.
